nN = 5;
nR = 20;
nH = 2;

a = [[22, 19, 13, 18, 24, 21, 24, 22, 11, 19, 15, 15, 18, 11, 14, 11, 21, 14, 25, 22], [13, 16, 12, 18, 13, 13, 16, 12, 19, 21, 18, 25, 20, 22, 25, 22, 16, 19, 18, 18], [21, 20, 20, 19, 10, 22, 22, 22, 23, 23, 17, 13, 13, 20, 14, 14, 24, 10, 25, 13], [22, 14, 18, 24, 11, 14, 10, 21, 15, 19, 23, 23, 13, 23, 20, 19, 19, 18, 18, 15], [22, 12, 25, 20, 16, 16, 19, 11, 15, 21, 11, 19, 21, 24, 20, 16, 11, 12, 15, 10]];
c = [[[0, 0, 0, 0, 0, 0, 0, 0, 0, 0, 0, 0, 0, 0, 0, 0, 0, 0, 0, 0], [37, 40, 36, 30, 42, 50, 43, 47, 35, 40, 31, 37, 43, 41, 39, 47, 50, 30, 41, 38], [33, 38, 32, 39, 38, 37, 39, 33, 50, 32, 38, 48, 34, 49, 38, 48, 45, 32, 36, 35], [33, 50, 34, 37, 37, 39, 40, 50, 49, 40, 31, 32, 37, 47, 35, 44, 48, 46, 32, 49], [37, 48, 48, 33, 31, 47, 41, 40, 34, 39, 33, 40, 41, 48, 48, 40, 49, 32, 30, 32]], [[0, 0, 0, 0, 0, 0, 0, 0, 0, 0, 0, 0, 0, 0, 0, 0, 0, 0, 0, 0], [0, 0, 0, 0, 0, 0, 0, 0, 0, 0, 0, 0, 0, 0, 0, 0, 0, 0, 0, 0], [32, 35, 33, 35, 31, 36, 46, 37, 50, 46, 33, 49, 49, 39, 35, 46, 32, 35, 50, 49], [41, 43, 31, 33, 47, 33, 33, 39, 30, 32, 46, 32, 50, 47, 32, 31, 30, 46, 47, 43], [38, 46, 41, 32, 44, 36, 31, 38, 44, 36, 49, 50, 33, 36, 46, 39, 38, 32, 47, 40]], [[0, 0, 0, 0, 0, 0, 0, 0, 0, 0, 0, 0, 0, 0, 0, 0, 0, 0, 0, 0], [0, 0, 0, 0, 0, 0, 0, 0, 0, 0, 0, 0, 0, 0, 0, 0, 0, 0, 0, 0], [0, 0, 0, 0, 0, 0, 0, 0, 0, 0, 0, 0, 0, 0, 0, 0, 0, 0, 0, 0], [40, 43, 45, 41, 32, 36, 31, 36, 42, 46, 49, 43, 47, 50, 39, 32, 31, 42, 39, 40], [49, 40, 50, 46, 33, 31, 36, 35, 38, 35, 49, 32, 39, 31, 36, 48, 39, 49, 37, 44]], [[0, 0, 0, 0, 0, 0, 0, 0, 0, 0, 0, 0, 0, 0, 0, 0, 0, 0, 0, 0], [0, 0, 0, 0, 0, 0, 0, 0, 0, 0, 0, 0, 0, 0, 0, 0, 0, 0, 0, 0], [0, 0, 0, 0, 0, 0, 0, 0, 0, 0, 0, 0, 0, 0, 0, 0, 0, 0, 0, 0], [0, 0, 0, 0, 0, 0, 0, 0, 0, 0, 0, 0, 0, 0, 0, 0, 0, 0, 0, 0], [32, 41, 48, 40, 40, 48, 34, 43, 44, 41, 49, 44, 34, 47, 44, 47, 38, 36, 40, 49]], [[0, 0, 0, 0, 0, 0, 0, 0, 0, 0, 0, 0, 0, 0, 0, 0, 0, 0, 0, 0], [0, 0, 0, 0, 0, 0, 0, 0, 0, 0, 0, 0, 0, 0, 0, 0, 0, 0, 0, 0], [0, 0, 0, 0, 0, 0, 0, 0, 0, 0, 0, 0, 0, 0, 0, 0, 0, 0, 0, 0], [0, 0, 0, 0, 0, 0, 0, 0, 0, 0, 0, 0, 0, 0, 0, 0, 0, 0, 0, 0], [0, 0, 0, 0, 0, 0, 0, 0, 0, 0, 0, 0, 0, 0, 0, 0, 0, 0, 0, 0]]];

q = [[[18, 115], [9, 115], [14, 110], [10, 106], [18, 113], [18, 122], [12, 107], [22, 115], [19, 113], [15, 111], [21, 112], [20, 114], [7, 120], [14, 105], [15, 124], [6, 110], [13, 108], [15, 113], [18, 122], [15, 116]], [[10, 106], [23, 125], [23, 124], [23, 108], [24, 112], [6, 112], [14, 119], [7, 110], [16, 114], [13, 111], [23, 111], [6, 120], [7, 112], [7, 123], [21, 123], [11, 121], [24, 120], [17, 123], [16, 106], [23, 123]], [[15, 115], [6, 117], [13, 107], [13, 116], [18, 112], [7, 107], [22, 120], [19, 123], [18, 120], [6, 125], [23, 105], [9, 123], [10, 115], [13, 113], [21, 118], [23, 118], [24, 125], [17, 123], [16, 107], [15, 115]], [[25, 117], [7, 112], [13, 114], [9, 111], [23, 120], [14, 115], [20, 119], [9, 109], [16, 107], [18, 120], [22, 113], [8, 120], [12, 118], [13, 107], [9, 112], [7, 123], [11, 116], [7, 105], [9, 106], [19, 111]], [[15, 114], [12, 119], [10, 120], [8, 110], [22, 112], [17, 111], [13, 124], [21, 119], [11, 108], [10, 123], [6, 107], [20, 117], [17, 122], [11, 124], [10, 120], [24, 116], [21, 124], [18, 106], [12, 117], [7, 106]]];
Q = [[49, 364], [51, 372], [49, 372], [43, 364], [46, 372]];
